units real
boundary p p p

atom_style full
bond_style harmonic
angle_style harmonic

pair_style lj/cut/coul/long 12 12
kspace_style pppm 1.0e-6

variable basename string SWM4-NDP
variable time string 1-5ns

#read_data ${basename}.lammpsdata
read_restart restart.equil_${basename}.500000

pair_coeff    1    1      0.210939     3.183950  # ODw ODw
pair_coeff    *   2*      0.000000     0.000000  # Everything else

group ATOMS type 1:3
group CORES type 1
group DRUDES type 4

variable TK equal 298.15  # Set molecule temp
variable TDK equal 1.0   # Set Drude temp
variable PBAR equal 1.0  # Set pressure

neighbor 2.0 bin
neigh_modify delay 0 every 1 check yes one 11330 page 200000

fix DRUDE all drude C N N D
delete_bonds ATOMS multi

comm_modify vel yes
compute TATOM ATOMS temp/com
compute TEMP all temp/drude
compute O_msd CORES msd com yes 

thermo_style custom step ke pe etotal press vol temp density c_TEMP[1] c_TEMP[2] c_O_msd[4]
thermo 10000
thermo_modify flush yes

##Molecular Dynamics Section (Equilibration)
dump 0 all custom 10000 ${basename}_equilibration2.lammpstrj id x y z ix iy iz
fix DTDIR all drude/transform/direct
fix CONST ATOMS rigid/nvt/small molecule temp ${TK} ${TK} 100
fix NVT DRUDES nvt temp ${TDK} ${TDK} 100.0
fix DTINV all drude/transform/inverse
restart 500000 restart.NVT_${basename}
log log_${basename}_equil2.lammps
timestep 1.0
run 500000

